NAME : ftv70.tour
COMMENT : Optimum tour for ftv70.tsp (Length 1950)
TYPE : TOUR
DIMENSION : 71
TOUR_SECTION  
31
32
66
2
3
6
1
29
26
28
7
14
67
15
13
16
17
19
20
21
22
24
61
34
35
36
70
42
39
37
38
64
41
69
47
63
55
51
68
50
48
40
49
52
56
57
71
4
5
9
8
10
12
11
59
62
60
58
53
54
46
45
44
43
33
27
23
18
65
25
30
-1
EOF
